myproject/instances/20nodes/rnd16_20.tsp
NAME : rnd16_20.tsp
TYPE : TSP
DIMENSION : 20
EDGE_WEIGHT_TYPE : EUC_2D
NODE_COORD_SECTION
1 919 322
2 870 229
3 59 837
4 825 727
5 14 992
6 754 680
7 792 6
8 690 170
9 248 795
10 906 967
11 524 522
12 781 563
13 868 211
14 870 197
15 367 864
16 412 231
17 51 19
18 619 127
19 387 837
20 552 97
