myproject/instances/20nodes/rnd16_20.opt.tour
NAME : rnd16_20.tsp.tsp.optbc.tour
TYPE : TOUR
DIMENSION : 20
TOUR_SECTION
0
9
3
10
11
5
6
7
15
17
4
2
14
8
1
13
19
18
16
12
-1